p tw 725 1397
1 343
1 344
1 508
1 509
1 612
1 613
2 629
2 630
3 645
3 646
4 291
4 292
5 631
5 632
6 86
6 370
6 371
6 439
6 440
6 455
6 515
6 516
7 266
7 267
7 451
7 452
7 469
7 470
7 527
7 528
8 554
8 555
9 358
9 359
9 470
9 471
9 539
9 540
10 581
10 582
10 636
10 637
11 597
11 598
11 655
11 656
12 380
12 381
12 663
12 664
13 267
13 268
13 471
13 472
13 540
13 541
14 268
14 269
15 401
15 402
16 651
16 652
16 713
16 714
17 321
17 322
17 482
17 483
17 593
17 594
18 283
18 284
18 448
18 449
18 524
18 525
19 364
19 365
20 372
20 373
20 653
20 654
21 290
21 291
21 565
21 566
21 680
21 681
21 720
21 721
22 696
22 697
23 264
23 265
24 418
24 419
25 288
25 289
25 564
25 565
26 639
26 640
27 333
27 334
27 453
27 454
27 498
27 499
28 289
28 290
29 315
29 316
30 671
30 672
31 621
31 622
32 421
32 422
33 641
33 642
34 339
34 340
35 394
35 395
36 638
36 639
37 661
37 662
38 695
38 696
39 699
39 700
40 428
40 429
40 606
40 607
41 670
41 671
42 270
42 271
42 704
42 705
43 624
43 625
44 336
44 337
44 438
44 439
44 501
44 502
44 514
44 515
45 427
45 428
46 387
46 388
46 675
46 676
47 666
47 667
48 271
48 272
49 265
49 266
49 468
49 469
49 538
49 539
50 272
50 273
51 402
51 403
52 79
52 98
52 344
52 345
52 685
52 725
53 368
53 369
53 650
53 651
54 355
54 356
55 371
55 372
55 437
55 438
55 513
55 514
56 677
56 678
57 261
57 262
57 531
57 532
58 377
58 378
58 488
58 489
58 556
58 557
59 378
59 379
60 340
60 341
61 648
61 649
62 356
62 357
62 627
62 628
63 637
63 638
64 543
64 544
65 326
65 327
66 694
66 695
67 432
67 433
68 320
68 321
69 77
69 366
69 367
69 452
69 528
70 393
70 394
71 381
71 382
71 492
71 493
72 389
72 390
73 598
73 599
73 656
73 657
74 657
74 658
74 691
74 692
75 409
75 410
75 588
75 589
76 303
76 304
77 383
77 384
77 452
77 528
78 273
78 274
79 669
79 670
79 725
80 390
80 391
81 403
81 404
81 447
81 448
81 467
81 468
81 523
81 524
82 431
82 432
83 426
83 427
84 328
84 329
84 491
84 492
84 601
84 602
85 646
85 647
85 724
85 725
86 174
86 251
86 406
86 407
86 455
86 529
86 709
87 363
87 364
87 446
87 447
87 521
87 522
87 546
87 547
88 626
88 627
89 312
89 313
89 474
89 475
89 582
89 583
90 404
90 405
90 630
90 631
91 692
91 693
92 287
92 288
92 440
92 441
92 502
92 503
92 516
92 517
92 563
92 564
93 350
93 351
94 667
94 668
95 400
95 401
95 573
95 574
95 618
95 619
96 397
96 398
96 567
96 568
96 682
96 683
97 665
97 666
98 120
98 345
98 346
98 510
98 613
98 614
98 685
99 392
99 393
99 566
99 567
99 681
99 682
100 388
100 389
100 503
100 504
100 562
100 563
101 688
101 689
102 422
102 423
102 664
102 665
103 668
103 669
104 405
104 406
104 584
104 585
105 647
105 648
106 298
106 299
107 429
107 430
107 504
107 505
107 678
107 679
107 715
107 716
108 352
108 353
108 441
108 442
108 460
108 461
108 517
108 518
108 535
108 536
109 276
109 277
109 450
109 451
109 479
109 480
109 526
109 527
110 319
110 320
111 721
111 722
112 362
112 363
113 353
113 354
113 462
113 463
113 537
113 538
114 558
114 559
115 419
115 420
116 181
116 706
117 325
117 326
118 304
118 305
118 443
118 444
118 519
118 520
119 608
119 609
120 196
120 347
120 348
120 510
120 614
121 314
121 315
122 295
122 296
123 346
123 347
124 420
124 421
125 379
125 380
126 683
126 684
127 628
127 629
128 274
128 275
128 476
128 477
128 545
128 546
129 367
129 368
130 399
130 400
130 572
130 573
131 306
131 307
131 577
131 578
132 412
132 413
132 477
132 478
132 589
132 590
133 277
133 278
133 550
133 551
134 307
134 308
134 465
134 466
135 260
135 261
135 456
135 457
135 530
135 531
136 544
136 545
137 423
137 424
138 385
138 386
138 674
138 675
138 710
138 711
139 311
139 312
139 580
139 581
140 294
140 295
140 506
140 507
140 568
140 569
141 305
141 306
141 464
141 465
141 576
141 577
142 549
142 550
142 654
142 655
143 686
143 687
144 382
144 383
144 494
144 495
144 559
144 560
145 587
145 588
146 672
146 673
147 330
147 331
148 354
148 355
149 263
149 264
149 459
149 460
149 533
149 534
150 534
150 535
150 619
150 620
151 357
151 358
152 278
152 279
152 486
152 487
152 552
152 553
153 632
153 633
154 599
154 600
155 642
155 643
155 723
155 724
156 329
156 330
156 445
156 446
156 490
156 491
156 522
156 523
157 316
157 317
158 279
158 280
158 487
158 488
159 703
159 704
160 262
160 263
160 458
160 459
160 532
160 533
161 700
161 701
162 635
162 636
162 712
162 713
163 282
163 283
163 489
163 490
163 557
163 558
164 308
164 309
164 466
164 467
164 578
164 579
164 623
164 624
164 697
164 698
165 342
165 343
165 507
165 508
165 610
165 611
166 424
166 425
167 617
167 618
168 309
168 310
168 579
168 580
169 634
169 635
170 348
170 349
171 625
171 626
172 689
172 690
173 338
173 339
173 505
173 506
173 607
173 608
174 709
175 373
175 374
175 551
175 552
176 369
176 370
176 436
176 437
176 484
176 485
176 512
176 513
176 548
176 549
177 284
177 285
177 495
177 496
177 560
177 561
178 286
178 287
178 499
178 500
179 570
179 571
180 413
180 414
180 480
180 481
180 591
180 592
181 365
181 366
181 706
182 395
182 396
183 644
183 645
184 679
184 680
184 717
184 718
185 318
185 319
186 622
186 623
186 722
186 723
187 301
187 302
188 698
188 699
189 310
189 311
189 633
189 634
189 711
189 712
190 690
190 691
191 323
191 324
192 701
192 702
193 595
193 596
194 702
194 703
195 327
195 328
195 600
195 601
195 660
195 661
196 201
196 433
196 614
197 417
197 418
198 359
198 360
198 472
198 473
198 541
198 542
199 292
199 293
200 299
200 300
200 571
200 572
201 433
201 509
201 510
201 611
201 612
202 269
202 270
202 473
202 474
202 542
202 543
203 335
203 336
203 676
203 677
203 714
203 715
204 349
204 350
204 457
204 458
204 615
204 616
205 684
205 685
206 374
206 375
206 658
206 659
207 280
207 281
208 361
208 362
209 673
209 674
210 705
210 706
211 313
211 314
211 583
211 584
212 693
212 694
213 707
213 708
214 375
214 376
215 414
215 415
215 481
215 482
215 592
215 593
216 297
216 298
217 407
217 408
217 475
217 476
217 585
217 586
218 398
218 399
219 536
219 537
220 296
220 297
220 569
220 570
221 416
221 417
221 485
221 486
221 596
221 597
222 553
222 554
223 332
223 333
223 434
223 435
223 497
223 498
224 410
224 411
225 324
225 325
225 652
225 653
226 300
226 301
226 461
226 462
226 575
226 576
227 396
227 397
227 444
227 445
227 520
227 521
228 430
228 431
229 604
229 605
230 322
230 323
230 649
230 650
231 687
231 688
232 574
232 575
233 408
233 409
233 640
233 641
233 718
233 719
234 384
234 385
235 285
235 286
236 360
236 361
237 411
237 412
237 478
237 479
238 415
238 416
238 483
238 484
238 594
238 595
239 337
239 338
240 386
240 387
240 500
240 501
240 561
240 562
241 341
241 342
241 609
241 610
242 351
242 352
243 643
243 644
244 425
244 426
244 496
244 497
244 603
244 604
245 590
245 591
246 376
246 377
247 331
247 332
247 449
247 450
247 493
247 494
247 525
247 526
247 602
247 603
248 334
248 335
249 620
249 621
249 716
249 717
250 317
250 318
250 586
250 587
251 302
251 303
251 442
251 443
251 454
251 455
251 463
251 464
251 518
251 519
251 529
251 708
251 709
252 281
252 282
252 555
252 556
252 662
252 663
253 391
253 392
254 616
254 617
255 435
255 436
255 511
255 512
256 275
256 276
256 547
256 548
257 293
257 294
258 659
258 660
258 719
258 720
259 605
259 606
260 261
261 262
262 263
263 264
264 265
265 266
266 267
267 268
268 269
269 270
270 271
271 272
272 273
273 274
274 275
275 276
276 277
277 278
278 279
279 280
280 281
281 282
282 283
283 284
284 285
285 286
286 287
287 288
288 289
289 290
290 291
291 292
292 293
293 294
294 295
295 296
296 297
297 298
298 299
299 300
300 301
301 302
302 303
303 304
304 305
305 306
306 307
307 308
308 309
309 310
310 311
311 312
312 313
313 314
314 315
315 316
316 317
317 318
318 319
319 320
320 321
321 322
322 323
323 324
324 325
325 326
326 327
327 328
328 329
329 330
330 331
331 332
332 333
333 334
334 335
335 336
336 337
337 338
338 339
339 340
340 341
341 342
342 343
343 344
344 345
345 346
346 347
347 348
348 349
349 350
350 351
351 352
352 353
353 354
354 355
355 356
356 357
357 358
358 359
359 360
360 361
361 362
362 363
363 364
364 365
365 366
366 367
367 368
368 369
369 370
370 371
371 372
372 373
373 374
374 375
375 376
376 377
377 378
378 379
379 380
380 381
381 382
382 383
383 384
384 385
385 386
386 387
387 388
388 389
389 390
390 391
391 392
392 393
393 394
394 395
395 396
396 397
397 398
398 399
399 400
400 401
401 402
402 403
403 404
404 405
405 406
406 407
407 408
408 409
409 410
410 411
411 412
412 413
413 414
414 415
415 416
416 417
417 418
418 419
419 420
420 421
421 422
422 423
423 424
424 425
425 426
426 427
427 428
428 429
429 430
430 431
431 432
432 433
434 435
435 436
436 437
437 438
438 439
439 440
440 441
441 442
442 443
443 444
444 445
445 446
446 447
447 448
448 449
449 450
450 451
451 452
453 454
454 455
456 457
457 458
458 459
459 460
460 461
461 462
462 463
463 464
464 465
465 466
466 467
467 468
468 469
469 470
470 471
471 472
472 473
473 474
474 475
475 476
476 477
477 478
478 479
479 480
480 481
481 482
482 483
483 484
484 485
485 486
486 487
487 488
488 489
489 490
490 491
491 492
492 493
493 494
494 495
495 496
496 497
497 498
498 499
499 500
500 501
501 502
502 503
503 504
504 505
505 506
506 507
507 508
508 509
509 510
511 512
512 513
513 514
514 515
515 516
516 517
517 518
518 519
519 520
520 521
521 522
522 523
523 524
524 525
525 526
526 527
527 528
530 531
531 532
532 533
533 534
534 535
535 536
536 537
537 538
538 539
539 540
540 541
541 542
542 543
543 544
544 545
545 546
546 547
547 548
548 549
549 550
550 551
551 552
552 553
553 554
554 555
555 556
556 557
557 558
558 559
559 560
560 561
561 562
562 563
563 564
564 565
565 566
566 567
567 568
568 569
569 570
570 571
571 572
572 573
573 574
574 575
575 576
576 577
577 578
578 579
579 580
580 581
581 582
582 583
583 584
584 585
585 586
586 587
587 588
588 589
589 590
590 591
591 592
592 593
593 594
594 595
595 596
596 597
597 598
598 599
599 600
600 601
601 602
602 603
603 604
604 605
605 606
606 607
607 608
608 609
609 610
610 611
611 612
612 613
613 614
615 616
616 617
617 618
618 619
619 620
620 621
621 622
622 623
623 624
624 625
625 626
626 627
627 628
628 629
629 630
630 631
631 632
632 633
633 634
634 635
635 636
636 637
637 638
638 639
639 640
640 641
641 642
642 643
643 644
644 645
645 646
646 647
647 648
648 649
649 650
650 651
651 652
652 653
653 654
654 655
655 656
656 657
657 658
658 659
659 660
660 661
661 662
662 663
663 664
664 665
665 666
666 667
667 668
668 669
669 670
670 671
671 672
672 673
673 674
674 675
675 676
676 677
677 678
678 679
679 680
680 681
681 682
682 683
683 684
684 685
686 687
687 688
688 689
689 690
690 691
691 692
692 693
693 694
694 695
695 696
696 697
697 698
698 699
699 700
700 701
701 702
702 703
703 704
704 705
705 706
707 708
708 709
710 711
711 712
712 713
713 714
714 715
715 716
716 717
717 718
718 719
719 720
720 721
721 722
722 723
723 724
724 725
